100
128
16
29
31
34
18
7
59
54
27
44
11
63
25
44
64
15
10
57
47
59
57
40
39
24
12
35
46
47
25
26
31
46
38
16
55
19
62
50
16
6
2
47
25
38
46
25
57
61
32
31
41
63
1
30
56
20
23
42
38
48
2
20
15
38
60
51
24
24
33
43
52
40
26
61
30
38
42
47
60
33
54
20
52
63
59
53
27
48
64
31
3
46
56
29
30
27
35
29
64
26